70
1 0 6
2 0 39
2 1 8
3 0 41
3 1 42
3 2 13
4 0 49
4 1 38
4 2 14
4 3 17
5 0 27
5 1 46
5 2 32
5 3 35
5 4 22
6 0 8
6 1 31
6 2 40
6 3 38
6 4 50
6 5 2
7 0 29
7 1 19
7 2 36
7 3 24
7 4 36
7 5 2
7 6 5
8 0 27
8 1 27
8 2 32
8 3 5
8 4 26
8 5 40
8 6 4
8 7 20
9 0 50
9 1 33
9 2 43
9 3 12
9 4 23
9 5 45
9 6 3
9 7 20
9 8 32
10 0 3
10 1 19
10 2 15
10 3 41
10 4 48
10 5 18
10 6 4
10 7 42
10 8 45
10 9 5
11 0 22
11 1 34
11 2 28
11 3 49
11 4 4
11 5 38
11 6 8
11 7 14
11 8 1
11 9 26
11 10 32
12 0 24
12 1 33
12 2 40
12 3 42
12 4 3
12 5 50
12 6 2
12 7 38
12 8 33
12 9 44
12 10 27
12 11 41
13 0 7
13 1 25
13 2 45
13 3 15
13 4 41
13 5 19
13 6 42
13 7 16
13 8 3
13 9 25
13 10 35
13 11 26
13 12 38
14 0 27
14 1 18
14 2 45
14 3 32
14 4 1
14 5 35
14 6 22
14 7 13
14 8 11
14 9 10
14 10 47
14 11 5
14 12 50
14 13 47
15 0 25
15 1 21
15 2 35
15 3 43
15 4 3
15 5 14
15 6 1
15 7 44
15 8 3
15 9 22
15 10 23
15 11 23
15 12 29
15 13 26
15 14 35
16 0 29
16 1 43
16 2 9
16 3 50
16 4 16
16 5 7
16 6 33
16 7 29
16 8 22
16 9 6
16 10 15
16 11 22
16 12 32
16 13 19
16 14 38
16 15 5
17 0 18
17 1 29
17 2 4
17 3 19
17 4 29
17 5 30
17 6 43
17 7 47
17 8 27
17 9 21
17 10 43
17 11 20
17 12 30
17 13 39
17 14 24
17 15 14
17 16 35
18 0 42
18 1 8
18 2 39
18 3 1
18 4 14
18 5 9
18 6 29
18 7 44
18 8 35
18 9 15
18 10 45
18 11 42
18 12 2
18 13 45
18 14 19
18 15 37
18 16 37
18 17 50
19 0 47
19 1 47
19 2 23
19 3 10
19 4 17
19 5 17
19 6 45
19 7 8
19 8 8
19 9 18
19 10 39
19 11 21
19 12 24
19 13 26
19 14 11
19 15 36
19 16 25
19 17 5
19 18 4
20 0 41
20 1 38
20 2 40
20 3 39
20 4 43
20 5 42
20 6 43
20 7 44
20 8 21
20 9 30
20 10 29
20 11 15
20 12 3
20 13 20
20 14 23
20 15 13
20 16 46
20 17 44
20 18 16
20 19 38
21 0 29
21 1 1
21 2 7
21 3 31
21 4 18
21 5 47
21 6 31
21 7 28
21 8 41
21 9 22
21 10 19
21 11 3
21 12 45
21 13 1
21 14 24
21 15 46
21 16 9
21 17 22
21 18 43
21 19 7
21 20 8
22 0 28
22 1 25
22 2 36
22 3 28
22 4 7
22 5 39
22 6 27
22 7 40
22 8 4
22 9 2
22 10 21
22 11 27
22 12 48
22 13 19
22 14 49
22 15 36
22 16 1
22 17 27
22 18 35
22 19 17
22 20 45
22 21 40
23 0 48
23 1 20
23 2 44
23 3 36
23 4 1
23 5 5
23 6 17
23 7 3
23 8 48
23 9 41
23 10 27
23 11 48
23 12 41
23 13 6
23 14 14
23 15 28
23 16 15
23 17 35
23 18 42
23 19 23
23 20 45
23 21 28
23 22 7
24 0 29
24 1 22
24 2 9
24 3 13
24 4 34
24 5 9
24 6 45
24 7 35
24 8 13
24 9 3
24 10 37
24 11 46
24 12 32
24 13 39
24 14 49
24 15 50
24 16 35
24 17 29
24 18 41
24 19 36
24 20 14
24 21 21
24 22 31
24 23 9
25 0 22
25 1 14
25 2 22
25 3 38
25 4 42
25 5 8
25 6 2
25 7 8
25 8 7
25 9 2
25 10 31
25 11 39
25 12 14
25 13 30
25 14 42
25 15 27
25 16 30
25 17 36
25 18 43
25 19 6
25 20 31
25 21 2
25 22 28
25 23 6
25 24 43
26 0 44
26 1 11
26 2 27
26 3 28
26 4 25
26 5 3
26 6 36
26 7 46
26 8 23
26 9 35
26 10 27
26 11 35
26 12 29
26 13 15
26 14 32
26 15 17
26 16 32
26 17 2
26 18 35
26 19 11
26 20 50
26 21 3
26 22 19
26 23 21
26 24 32
26 25 48
27 0 15
27 1 12
27 2 13
27 3 48
27 4 1
27 5 20
27 6 38
27 7 34
27 8 6
27 9 24
27 10 40
27 11 26
27 12 40
27 13 10
27 14 21
27 15 48
27 16 25
27 17 31
27 18 12
27 19 22
27 20 25
27 21 6
27 22 13
27 23 24
27 24 27
27 25 1
27 26 18
28 0 49
28 1 45
28 2 3
28 3 17
28 4 26
28 5 28
28 6 7
28 7 44
28 8 23
28 9 3
28 10 46
28 11 27
28 12 16
28 13 35
28 14 17
28 15 5
28 16 49
28 17 36
28 18 12
28 19 38
28 20 21
28 21 42
28 22 13
28 23 26
28 24 11
28 25 20
28 26 6
28 27 29
29 0 41
29 1 29
29 2 34
29 3 46
29 4 22
29 5 44
29 6 25
29 7 30
29 8 8
29 9 30
29 10 47
29 11 35
29 12 26
29 13 6
29 14 27
29 15 15
29 16 30
29 17 50
29 18 43
29 19 37
29 20 16
29 21 29
29 22 24
29 23 24
29 24 43
29 25 7
29 26 11
29 27 16
29 28 50
30 0 10
30 1 26
30 2 13
30 3 43
30 4 18
30 5 31
30 6 32
30 7 28
30 8 29
30 9 11
30 10 40
30 11 27
30 12 11
30 13 7
30 14 18
30 15 32
30 16 41
30 17 49
30 18 21
30 19 14
30 20 35
30 21 6
30 22 45
30 23 10
30 24 34
30 25 46
30 26 22
30 27 27
30 28 37
30 29 44
31 0 29
31 1 31
31 2 13
31 3 48
31 4 21
31 5 4
31 6 49
31 7 31
31 8 28
31 9 37
31 10 10
31 11 6
31 12 17
31 13 14
31 14 33
31 15 4
31 16 35
31 17 12
31 18 8
31 19 13
31 20 44
31 21 16
31 22 35
31 23 26
31 24 4
31 25 45
31 26 47
31 27 45
31 28 35
31 29 9
31 30 8
32 0 23
32 1 32
32 2 15
32 3 48
32 4 21
32 5 2
32 6 29
32 7 30
32 8 31
32 9 14
32 10 22
32 11 11
32 12 25
32 13 4
32 14 45
32 15 2
32 16 37
32 17 8
32 18 30
32 19 37
32 20 40
32 21 35
32 22 37
32 23 36
32 24 30
32 25 27
32 26 17
32 27 15
32 28 3
32 29 1
32 30 39
32 31 22
33 0 38
33 1 33
33 2 32
33 3 2
33 4 8
33 5 15
33 6 3
33 7 38
33 8 37
33 9 13
33 10 9
33 11 46
33 12 41
33 13 35
33 14 31
33 15 37
33 16 39
33 17 11
33 18 39
33 19 12
33 20 11
33 21 17
33 22 29
33 23 28
33 24 49
33 25 30
33 26 43
33 27 8
33 28 12
33 29 6
33 30 28
33 31 34
33 32 9
34 0 50
34 1 19
34 2 49
34 3 32
34 4 1
34 5 31
34 6 44
34 7 5
34 8 17
34 9 22
34 10 31
34 11 38
34 12 8
34 13 19
34 14 42
34 15 15
34 16 38
34 17 24
34 18 44
34 19 12
34 20 7
34 21 38
34 22 27
34 23 15
34 24 8
34 25 14
34 26 36
34 27 20
34 28 13
34 29 45
34 30 15
34 31 29
34 32 35
34 33 20
35 0 25
35 1 19
35 2 7
35 3 38
35 4 30
35 5 41
35 6 2
35 7 25
35 8 13
35 9 1
35 10 3
35 11 37
35 12 25
35 13 44
35 14 26
35 15 49
35 16 34
35 17 33
35 18 32
35 19 2
35 20 47
35 21 4
35 22 1
35 23 31
35 24 20
35 25 24
35 26 25
35 27 11
35 28 26
35 29 9
35 30 39
35 31 31
35 32 44
35 33 44
35 34 49
36 0 10
36 1 7
36 2 41
36 3 2
36 4 22
36 5 32
36 6 14
36 7 2
36 8 34
36 9 19
36 10 20
36 11 23
36 12 2
36 13 2
36 14 9
36 15 6
36 16 45
36 17 20
36 18 32
36 19 16
36 20 9
36 21 15
36 22 18
36 23 9
36 24 42
36 25 39
36 26 26
36 27 38
36 28 44
36 29 21
36 30 26
36 31 40
36 32 43
36 33 44
36 34 39
36 35 29
37 0 48
37 1 50
37 2 6
37 3 12
37 4 30
37 5 1
37 6 49
37 7 9
37 8 41
37 9 50
37 10 18
37 11 44
37 12 19
37 13 14
37 14 2
37 15 48
37 16 17
37 17 30
37 18 37
37 19 18
37 20 48
37 21 6
37 22 15
37 23 47
37 24 42
37 25 40
37 26 27
37 27 4
37 28 37
37 29 29
37 30 4
37 31 41
37 32 16
37 33 13
37 34 41
37 35 35
37 36 11
38 0 15
38 1 44
38 2 18
38 3 38
38 4 37
38 5 26
38 6 36
38 7 6
38 8 7
38 9 45
38 10 1
38 11 24
38 12 43
38 13 3
38 14 4
38 15 26
38 16 29
38 17 14
38 18 46
38 19 47
38 20 26
38 21 41
38 22 50
38 23 38
38 24 45
38 25 31
38 26 15
38 27 15
38 28 27
38 29 20
38 30 33
38 31 23
38 32 39
38 33 20
38 34 6
38 35 23
38 36 47
38 37 33
39 0 15
39 1 9
39 2 2
39 3 22
39 4 4
39 5 47
39 6 29
39 7 18
39 8 48
39 9 8
39 10 31
39 11 14
39 12 47
39 13 12
39 14 16
39 15 45
39 16 42
39 17 41
39 18 35
39 19 42
39 20 15
39 21 1
39 22 26
39 23 24
39 24 7
39 25 18
39 26 8
39 27 40
39 28 20
39 29 33
39 30 12
39 31 14
39 32 29
39 33 46
39 34 3
39 35 11
39 36 35
39 37 43
39 38 25
40 0 13
40 1 24
40 2 1
40 3 26
40 4 49
40 5 17
40 6 18
40 7 26
40 8 40
40 9 17
40 10 28
40 11 30
40 12 26
40 13 14
40 14 43
40 15 44
40 16 6
40 17 9
40 18 47
40 19 34
40 20 11
40 21 25
40 22 7
40 23 26
40 24 22
40 25 11
40 26 50
40 27 34
40 28 11
40 29 44
40 30 6
40 31 2
40 32 40
40 33 19
40 34 39
40 35 40
40 36 46
40 37 45
40 38 19
40 39 26
41 0 1
41 1 9
41 2 15
41 3 13
41 4 35
41 5 13
41 6 21
41 7 31
41 8 42
41 9 19
41 10 11
41 11 24
41 12 25
41 13 17
41 14 26
41 15 24
41 16 24
41 17 49
41 18 9
41 19 5
41 20 30
41 21 14
41 22 14
41 23 36
41 24 21
41 25 8
41 26 23
41 27 29
41 28 16
41 29 14
41 30 39
41 31 5
41 32 16
41 33 16
41 34 2
41 35 42
41 36 34
41 37 14
41 38 21
41 39 30
41 40 22
42 0 9
42 1 49
42 2 2
42 3 10
42 4 45
42 5 14
42 6 46
42 7 7
42 8 7
42 9 18
42 10 37
42 11 36
42 12 43
42 13 20
42 14 25
42 15 39
42 16 19
42 17 20
42 18 4
42 19 1
42 20 22
42 21 14
42 22 46
42 23 37
42 24 21
42 25 11
42 26 18
42 27 41
42 28 37
42 29 26
42 30 40
42 31 46
42 32 20
42 33 39
42 34 31
42 35 24
42 36 36
42 37 33
42 38 10
42 39 12
42 40 44
42 41 15
43 0 31
43 1 46
43 2 4
43 3 50
43 4 15
43 5 35
43 6 8
43 7 4
43 8 47
43 9 20
43 10 1
43 11 39
43 12 45
43 13 23
43 14 13
43 15 38
43 16 8
43 17 25
43 18 41
43 19 17
43 20 44
43 21 21
43 22 28
43 23 41
43 24 29
43 25 47
43 26 8
43 27 24
43 28 29
43 29 37
43 30 34
43 31 36
43 32 39
43 33 29
43 34 22
43 35 49
43 36 16
43 37 5
43 38 26
43 39 6
43 40 30
43 41 15
43 42 39
44 0 15
44 1 29
44 2 37
44 3 10
44 4 42
44 5 15
44 6 50
44 7 45
44 8 13
44 9 22
44 10 5
44 11 13
44 12 43
44 13 45
44 14 28
44 15 47
44 16 6
44 17 38
44 18 32
44 19 40
44 20 4
44 21 31
44 22 45
44 23 43
44 24 26
44 25 22
44 26 44
44 27 39
44 28 7
44 29 43
44 30 43
44 31 48
44 32 41
44 33 28
44 34 36
44 35 23
44 36 45
44 37 47
44 38 22
44 39 1
44 40 23
44 41 26
44 42 4
44 43 34
45 0 4
45 1 22
45 2 34
45 3 22
45 4 21
45 5 7
45 6 41
45 7 29
45 8 27
45 9 20
45 10 43
45 11 50
45 12 46
45 13 36
45 14 41
45 15 3
45 16 34
45 17 6
45 18 26
45 19 35
45 20 12
45 21 47
45 22 23
45 23 31
45 24 28
45 25 38
45 26 33
45 27 8
45 28 33
45 29 50
45 30 14
45 31 47
45 32 4
45 33 25
45 34 38
45 35 10
45 36 28
45 37 17
45 38 47
45 39 47
45 40 41
45 41 29
45 42 6
45 43 42
45 44 30
46 0 33
46 1 24
46 2 29
46 3 3
46 4 43
46 5 41
46 6 25
46 7 13
46 8 34
46 9 39
46 10 50
46 11 22
46 12 18
46 13 5
46 14 39
46 15 8
46 16 46
46 17 19
46 18 23
46 19 35
46 20 7
46 21 23
46 22 12
46 23 48
46 24 25
46 25 22
46 26 36
46 27 9
46 28 12
46 29 48
46 30 43
46 31 48
46 32 38
46 33 7
46 34 5
46 35 19
46 36 3
46 37 21
46 38 27
46 39 13
46 40 50
46 41 9
46 42 4
46 43 5
46 44 33
46 45 40
47 0 5
47 1 35
47 2 2
47 3 35
47 4 23
47 5 48
47 6 29
47 7 18
47 8 26
47 9 13
47 10 39
47 11 17
47 12 5
47 13 14
47 14 25
47 15 4
47 16 34
47 17 15
47 18 41
47 19 32
47 20 18
47 21 15
47 22 28
47 23 45
47 24 8
47 25 16
47 26 41
47 27 36
47 28 45
47 29 49
47 30 17
47 31 10
47 32 31
47 33 18
47 34 3
47 35 8
47 36 15
47 37 47
47 38 32
47 39 2
47 40 17
47 41 6
47 42 36
47 43 12
47 44 4
47 45 1
47 46 48
48 0 32
48 1 14
48 2 35
48 3 19
48 4 21
48 5 22
48 6 4
48 7 25
48 8 37
48 9 10
48 10 47
48 11 8
48 12 48
48 13 21
48 14 15
48 15 10
48 16 5
48 17 23
48 18 22
48 19 10
48 20 5
48 21 44
48 22 38
48 23 8
48 24 43
48 25 36
48 26 9
48 27 33
48 28 8
48 29 37
48 30 31
48 31 49
48 32 4
48 33 25
48 34 48
48 35 6
48 36 11
48 37 9
48 38 19
48 39 36
48 40 9
48 41 25
48 42 7
48 43 27
48 44 43
48 45 2
48 46 45
48 47 30
49 0 28
49 1 40
49 2 22
49 3 25
49 4 11
49 5 5
49 6 20
49 7 16
49 8 46
49 9 43
49 10 1
49 11 8
49 12 22
49 13 41
49 14 18
49 15 13
49 16 2
49 17 22
49 18 23
49 19 16
49 20 11
49 21 31
49 22 13
49 23 10
49 24 9
49 25 10
49 26 12
49 27 19
49 28 33
49 29 42
49 30 12
49 31 44
49 32 40
49 33 11
49 34 46
49 35 13
49 36 28
49 37 11
49 38 33
49 39 9
49 40 49
49 41 24
49 42 47
49 43 16
49 44 36
49 45 47
49 46 27
49 47 6
49 48 15
50 0 41
50 1 7
50 2 8
50 3 37
50 4 18
50 5 49
50 6 17
50 7 13
50 8 9
50 9 39
50 10 19
50 11 42
50 12 8
50 13 11
50 14 34
50 15 5
50 16 12
50 17 19
50 18 23
50 19 15
50 20 14
50 21 1
50 22 48
50 23 17
50 24 13
50 25 48
50 26 17
50 27 39
50 28 9
50 29 22
50 30 45
50 31 33
50 32 24
50 33 17
50 34 10
50 35 14
50 36 49
50 37 49
50 38 28
50 39 23
50 40 27
50 41 25
50 42 50
50 43 48
50 44 45
50 45 10
50 46 24
50 47 37
50 48 28
50 49 10
51 0 5
51 1 34
51 2 26
51 3 31
51 4 25
51 5 37
51 6 13
51 7 37
51 8 39
51 9 23
51 10 19
51 11 8
51 12 26
51 13 41
51 14 33
51 15 36
51 16 41
51 17 18
51 18 23
51 19 39
51 20 27
51 21 11
51 22 45
51 23 9
51 24 40
51 25 30
51 26 47
51 27 37
51 28 44
51 29 44
51 30 29
51 31 30
51 32 34
51 33 1
51 34 37
51 35 3
51 36 36
51 37 14
51 38 14
51 39 20
51 40 2
51 41 28
51 42 29
51 43 26
51 44 33
51 45 18
51 46 25
51 47 10
51 48 25
51 49 25
51 50 29
52 0 43
52 1 34
52 2 13
52 3 43
52 4 26
52 5 44
52 6 16
52 7 28
52 8 34
52 9 3
52 10 22
52 11 40
52 12 21
52 13 31
52 14 22
52 15 40
52 16 22
52 17 46
52 18 17
52 19 16
52 20 25
52 21 39
52 22 40
52 23 20
52 24 1
52 25 19
52 26 27
52 27 21
52 28 41
52 29 18
52 30 50
52 31 16
52 32 29
52 33 27
52 34 30
52 35 21
52 36 7
52 37 15
52 38 21
52 39 44
52 40 46
52 41 13
52 42 3
52 43 8
52 44 5
52 45 29
52 46 47
52 47 46
52 48 7
52 49 11
52 50 23
52 51 49
53 0 46
53 1 14
53 2 32
53 3 26
53 4 37
53 5 17
53 6 18
53 7 25
53 8 34
53 9 26
53 10 49
53 11 13
53 12 5
53 13 13
53 14 14
53 15 17
53 16 20
53 17 19
53 18 1
53 19 9
53 20 20
53 21 50
53 22 49
53 23 25
53 24 32
53 25 46
53 26 12
53 27 8
53 28 39
53 29 3
53 30 13
53 31 41
53 32 37
53 33 41
53 34 13
53 35 49
53 36 10
53 37 19
53 38 13
53 39 48
53 40 42
53 41 21
53 42 9
53 43 1
53 44 14
53 45 42
53 46 23
53 47 29
53 48 20
53 49 15
53 50 41
53 51 19
53 52 47
54 0 35
54 1 47
54 2 48
54 3 20
54 4 6
54 5 30
54 6 37
54 7 8
54 8 24
54 9 17
54 10 39
54 11 11
54 12 11
54 13 21
54 14 33
54 15 14
54 16 40
54 17 12
54 18 24
54 19 11
54 20 20
54 21 48
54 22 30
54 23 26
54 24 36
54 25 10
54 26 36
54 27 37
54 28 15
54 29 6
54 30 22
54 31 12
54 32 46
54 33 4
54 34 19
54 35 2
54 36 7
54 37 45
54 38 30
54 39 6
54 40 28
54 41 9
54 42 31
54 43 32
54 44 5
54 45 20
54 46 34
54 47 8
54 48 40
54 49 30
54 50 31
54 51 24
54 52 47
54 53 7
55 0 44
55 1 41
55 2 1
55 3 19
55 4 16
55 5 28
55 6 11
55 7 32
55 8 37
55 9 35
55 10 44
55 11 44
55 12 35
55 13 24
55 14 43
55 15 20
55 16 31
55 17 21
55 18 45
55 19 5
55 20 17
55 21 10
55 22 18
55 23 43
55 24 39
55 25 10
55 26 46
55 27 48
55 28 16
55 29 48
55 30 9
55 31 45
55 32 47
55 33 25
55 34 4
55 35 33
55 36 17
55 37 22
55 38 45
55 39 25
55 40 23
55 41 17
55 42 38
55 43 3
55 44 19
55 45 37
55 46 26
55 47 36
55 48 10
55 49 37
55 50 46
55 51 4
55 52 26
55 53 50
55 54 28
56 0 40
56 1 37
56 2 43
56 3 20
56 4 5
56 5 8
56 6 32
56 7 12
56 8 38
56 9 26
56 10 13
56 11 41
56 12 17
56 13 29
56 14 9
56 15 24
56 16 3
56 17 5
56 18 38
56 19 12
56 20 21
56 21 39
56 22 45
56 23 1
56 24 36
56 25 26
56 26 25
56 27 16
56 28 35
56 29 37
56 30 44
56 31 17
56 32 22
56 33 40
56 34 29
56 35 31
56 36 43
56 37 45
56 38 45
56 39 35
56 40 20
56 41 18
56 42 50
56 43 5
56 44 16
56 45 3
56 46 43
56 47 46
56 48 43
56 49 36
56 50 50
56 51 37
56 52 43
56 53 31
56 54 47
56 55 21
57 0 19
57 1 1
57 2 40
57 3 26
57 4 5
57 5 1
57 6 16
57 7 41
57 8 7
57 9 2
57 10 36
57 11 25
57 12 5
57 13 38
57 14 28
57 15 48
57 16 32
57 17 37
57 18 37
57 19 10
57 20 45
57 21 21
57 22 32
57 23 20
57 24 26
57 25 25
57 26 23
57 27 49
57 28 9
57 29 15
57 30 37
57 31 17
57 32 40
57 33 42
57 34 16
57 35 50
57 36 40
57 37 13
57 38 20
57 39 2
57 40 13
57 41 38
57 42 21
57 43 44
57 44 30
57 45 49
57 46 36
57 47 33
57 48 14
57 49 37
57 50 28
57 51 7
57 52 41
57 53 16
57 54 36
57 55 32
57 56 32
58 0 3
58 1 39
58 2 16
58 3 2
58 4 20
58 5 42
58 6 15
58 7 49
58 8 7
58 9 13
58 10 36
58 11 34
58 12 27
58 13 35
58 14 15
58 15 6
58 16 1
58 17 30
58 18 48
58 19 44
58 20 4
58 21 35
58 22 6
58 23 2
58 24 34
58 25 23
58 26 10
58 27 3
58 28 47
58 29 12
58 30 18
58 31 38
58 32 44
58 33 40
58 34 8
58 35 43
58 36 1
58 37 27
58 38 10
58 39 43
58 40 28
58 41 9
58 42 28
58 43 41
58 44 31
58 45 6
58 46 29
58 47 45
58 48 42
58 49 35
58 50 34
58 51 11
58 52 17
58 53 47
58 54 32
58 55 24
58 56 32
58 57 16
59 0 12
59 1 40
59 2 9
59 3 8
59 4 35
59 5 8
59 6 36
59 7 21
59 8 17
59 9 38
59 10 11
59 11 32
59 12 34
59 13 5
59 14 31
59 15 47
59 16 36
59 17 24
59 18 13
59 19 44
59 20 2
59 21 26
59 22 40
59 23 40
59 24 7
59 25 25
59 26 9
59 27 42
59 28 2
59 29 44
59 30 34
59 31 36
59 32 5
59 33 15
59 34 16
59 35 10
59 36 31
59 37 43
59 38 1
59 39 26
59 40 28
59 41 18
59 42 21
59 43 22
59 44 28
59 45 2
59 46 6
59 47 32
59 48 5
59 49 46
59 50 37
59 51 22
59 52 15
59 53 28
59 54 17
59 55 18
59 56 2
59 57 7
59 58 31
60 0 40
60 1 1
60 2 8
60 3 22
60 4 49
60 5 5
60 6 43
60 7 10
60 8 35
60 9 15
60 10 24
60 11 16
60 12 43
60 13 41
60 14 40
60 15 40
60 16 30
60 17 12
60 18 34
60 19 27
60 20 24
60 21 35
60 22 20
60 23 9
60 24 15
60 25 46
60 26 7
60 27 7
60 28 8
60 29 50
60 30 48
60 31 30
60 32 50
60 33 24
60 34 39
60 35 18
60 36 45
60 37 15
60 38 32
60 39 41
60 40 30
60 41 26
60 42 8
60 43 31
60 44 1
60 45 39
60 46 31
60 47 35
60 48 3
60 49 1
60 50 21
60 51 24
60 52 33
60 53 3
60 54 50
60 55 48
60 56 1
60 57 38
60 58 46
60 59 33
61 0 13
61 1 2
61 2 7
61 3 23
61 4 18
61 5 2
61 6 32
61 7 12
61 8 42
61 9 3
61 10 32
61 11 28
61 12 14
61 13 5
61 14 24
61 15 43
61 16 13
61 17 8
61 18 29
61 19 1
61 20 48
61 21 34
61 22 6
61 23 49
61 24 17
61 25 35
61 26 28
61 27 7
61 28 50
61 29 23
61 30 43
61 31 20
61 32 43
61 33 49
61 34 4
61 35 16
61 36 23
61 37 22
61 38 50
61 39 28
61 40 23
61 41 18
61 42 28
61 43 36
61 44 23
61 45 14
61 46 17
61 47 12
61 48 22
61 49 9
61 50 35
61 51 33
61 52 26
61 53 37
61 54 47
61 55 4
61 56 25
61 57 19
61 58 33
61 59 43
61 60 28
62 0 37
62 1 12
62 2 20
62 3 12
62 4 40
62 5 18
62 6 22
62 7 21
62 8 42
62 9 21
62 10 46
62 11 39
62 12 9
62 13 36
62 14 47
62 15 9
62 16 10
62 17 43
62 18 35
62 19 49
62 20 49
62 21 4
62 22 47
62 23 50
62 24 45
62 25 13
62 26 2
62 27 43
62 28 34
62 29 18
62 30 38
62 31 33
62 32 46
62 33 28
62 34 30
62 35 32
62 36 4
62 37 28
62 38 36
62 39 41
62 40 17
62 41 27
62 42 22
62 43 48
62 44 50
62 45 50
62 46 22
62 47 32
62 48 8
62 49 17
62 50 16
62 51 32
62 52 47
62 53 42
62 54 46
62 55 26
62 56 24
62 57 28
62 58 45
62 59 38
62 60 16
62 61 15
63 0 19
63 1 49
63 2 13
63 3 19
63 4 13
63 5 7
63 6 22
63 7 14
63 8 2
63 9 28
63 10 17
63 11 8
63 12 6
63 13 14
63 14 6
63 15 35
63 16 32
63 17 6
63 18 10
63 19 5
63 20 31
63 21 30
63 22 11
63 23 48
63 24 43
63 25 1
63 26 40
63 27 17
63 28 40
63 29 6
63 30 27
63 31 21
63 32 27
63 33 32
63 34 16
63 35 13
63 36 17
63 37 32
63 38 42
63 39 48
63 40 33
63 41 43
63 42 47
63 43 1
63 44 16
63 45 50
63 46 6
63 47 22
63 48 21
63 49 47
63 50 17
63 51 21
63 52 8
63 53 9
63 54 1
63 55 15
63 56 33
63 57 10
63 58 30
63 59 4
63 60 21
63 61 17
63 62 30
64 0 1
64 1 38
64 2 15
64 3 26
64 4 34
64 5 1
64 6 35
64 7 6
64 8 40
64 9 36
64 10 5
64 11 17
64 12 37
64 13 9
64 14 17
64 15 11
64 16 7
64 17 27
64 18 12
64 19 8
64 20 24
64 21 37
64 22 45
64 23 4
64 24 21
64 25 12
64 26 18
64 27 22
64 28 3
64 29 18
64 30 7
64 31 4
64 32 28
64 33 36
64 34 46
64 35 18
64 36 47
64 37 46
64 38 24
64 39 16
64 40 35
64 41 23
64 42 37
64 43 15
64 44 38
64 45 44
64 46 16
64 47 38
64 48 41
64 49 7
64 50 1
64 51 1
64 52 9
64 53 49
64 54 15
64 55 5
64 56 27
64 57 44
64 58 16
64 59 4
64 60 15
64 61 30
64 62 27
64 63 17
65 0 33
65 1 29
65 2 36
65 3 49
65 4 3
65 5 33
65 6 32
65 7 5
65 8 7
65 9 43
65 10 9
65 11 24
65 12 9
65 13 12
65 14 32
65 15 25
65 16 31
65 17 2
65 18 50
65 19 31
65 20 6
65 21 29
65 22 43
65 23 4
65 24 18
65 25 36
65 26 17
65 27 47
65 28 25
65 29 41
65 30 36
65 31 48
65 32 46
65 33 21
65 34 6
65 35 24
65 36 35
65 37 10
65 38 11
65 39 7
65 40 4
65 41 42
65 42 40
65 43 45
65 44 38
65 45 49
65 46 34
65 47 7
65 48 29
65 49 11
65 50 24
65 51 17
65 52 23
65 53 43
65 54 48
65 55 38
65 56 3
65 57 8
65 58 3
65 59 24
65 60 45
65 61 45
65 62 47
65 63 4
65 64 42
66 0 34
66 1 29
66 2 17
66 3 1
66 4 12
66 5 31
66 6 29
66 7 45
66 8 41
66 9 35
66 10 14
66 11 35
66 12 11
66 13 18
66 14 32
66 15 34
66 16 7
66 17 16
66 18 31
66 19 44
66 20 2
66 21 35
66 22 1
66 23 10
66 24 9
66 25 16
66 26 28
66 27 10
66 28 14
66 29 24
66 30 42
66 31 40
66 32 27
66 33 27
66 34 43
66 35 32
66 36 35
66 37 21
66 38 21
66 39 12
66 40 49
66 41 35
66 42 26
66 43 33
66 44 39
66 45 50
66 46 32
66 47 32
66 48 14
66 49 39
66 50 21
66 51 22
66 52 37
66 53 43
66 54 14
66 55 28
66 56 42
66 57 9
66 58 48
66 59 25
66 60 18
66 61 24
66 62 38
66 63 43
66 64 15
66 65 17
67 0 25
67 1 28
67 2 50
67 3 16
67 4 43
67 5 1
67 6 42
67 7 14
67 8 3
67 9 33
67 10 36
67 11 15
67 12 46
67 13 44
67 14 20
67 15 24
67 16 31
67 17 24
67 18 19
67 19 41
67 20 47
67 21 3
67 22 32
67 23 35
67 24 32
67 25 7
67 26 44
67 27 45
67 28 11
67 29 39
67 30 41
67 31 4
67 32 18
67 33 48
67 34 30
67 35 2
67 36 42
67 37 10
67 38 26
67 39 19
67 40 16
67 41 43
67 42 32
67 43 10
67 44 39
67 45 21
67 46 3
67 47 14
67 48 19
67 49 28
67 50 24
67 51 19
67 52 38
67 53 38
67 54 47
67 55 47
67 56 13
67 57 32
67 58 21
67 59 20
67 60 37
67 61 41
67 62 47
67 63 30
67 64 28
67 65 13
67 66 14
68 0 14
68 1 14
68 2 42
68 3 9
68 4 18
68 5 1
68 6 31
68 7 8
68 8 42
68 9 19
68 10 38
68 11 48
68 12 9
68 13 30
68 14 20
68 15 13
68 16 41
68 17 12
68 18 31
68 19 17
68 20 43
68 21 29
68 22 33
68 23 35
68 24 14
68 25 26
68 26 34
68 27 41
68 28 16
68 29 31
68 30 44
68 31 33
68 32 27
68 33 32
68 34 43
68 35 24
68 36 49
68 37 38
68 38 17
68 39 12
68 40 18
68 41 13
68 42 41
68 43 17
68 44 13
68 45 14
68 46 32
68 47 41
68 48 31
68 49 3
68 50 27
68 51 7
68 52 7
68 53 39
68 54 41
68 55 4
68 56 16
68 57 39
68 58 24
68 59 21
68 60 9
68 61 45
68 62 13
68 63 26
68 64 5
68 65 9
68 66 2
68 67 49
69 0 8
69 1 10
69 2 17
69 3 34
69 4 47
69 5 32
69 6 41
69 7 23
69 8 26
69 9 49
69 10 47
69 11 36
69 12 26
69 13 26
69 14 10
69 15 36
69 16 11
69 17 48
69 18 31
69 19 44
69 20 38
69 21 6
69 22 28
69 23 44
69 24 24
69 25 48
69 26 34
69 27 14
69 28 42
69 29 27
69 30 46
69 31 21
69 32 50
69 33 35
69 34 40
69 35 23
69 36 29
69 37 46
69 38 11
69 39 48
69 40 43
69 41 9
69 42 36
69 43 16
69 44 18
69 45 44
69 46 47
69 47 44
69 48 5
69 49 23
69 50 21
69 51 43
69 52 8
69 53 3
69 54 22
69 55 46
69 56 47
69 57 3
69 58 12
69 59 18
69 60 12
69 61 48
69 62 34
69 63 16
69 64 32
69 65 25
69 66 35
69 67 10
69 68 6
